
<<< setup


<<< generate

Version identifier: 12.10.0.0 | 2019-11-26 | 843d4de2ae
CPXPARAM_TimeLimit                               1200
Tried aggregator 3 times.
MIP Presolve eliminated 5117775 rows and 2883173 columns.
MIP Presolve modified 431428 coefficients.
Aggregator did 1054 substitutions.
Reduced MIP has 124221 rows, 127323 columns, and 806919 nonzeros.
Reduced MIP has 127273 binaries, 0 generals, 0 SOSs, and 0 indicators.
Presolve time = 7.88 sec. (4816.74 ticks)
Elapsed time = 52.52 sec. (10000.31 ticks) for 38% of probing (2924 vars fixed)
Probing fixed 3066 vars, tightened 0 bounds.
Probing time = 61.27 sec. (11348.82 ticks)
Tried aggregator 1 time.
Detecting symmetries...
MIP Presolve eliminated 3066 rows and 3066 columns.
Reduced MIP has 121155 rows, 124257 columns, and 786395 nonzeros.
Reduced MIP has 124207 binaries, 0 generals, 0 SOSs, and 0 indicators.
Presolve time = 1.00 sec. (484.51 ticks)
Probing time = 0.42 sec. (66.56 ticks)
Clique table members: 438685.
MIP emphasis: balance optimality and feasibility.
MIP search method: dynamic search.
Parallel mode: deterministic, using up to 4 threads.
Root relaxation solution time = 10.61 sec. (6669.76 ticks)

        Nodes                                         Cuts/
   Node  Left     Objective  IInf  Best Integer    Best Bound    ItCnt     Gap

*     0+    0                            0.0000   128904.0000              --- 
      0     0    71225.0000   418        0.0000    71225.0000    16644     --- 
*     0+    0                        26350.0000    71225.0000           170.30%
      0     0    71225.0000   418    26350.0000      Cuts: 17    22733  170.30%
      0     0    71225.0000   418    26350.0000    Cuts: 9711    32919  170.30%
      0     0    71225.0000   418    26350.0000     Cuts: 531    47910  170.30%
      0     0    71225.0000   418    26350.0000    Cuts: 3090    66974  170.30%
Heuristic still looking.
Detecting symmetries...
      0     2    71225.0000   199    26350.0000    71225.0000    67001  170.30%
Elapsed time = 630.03 sec. (251071.44 ticks, tree = 0.02 MB, solutions = 2)
      1     3    71225.0000   261    26350.0000    71225.0000    94092  170.30%
      2     4    71225.0000   292    26350.0000    71225.0000   103730  170.30%
      3     3    71225.0000   289    26350.0000    71225.0000    90133  170.30%
      4     5    71225.0000   258    26350.0000    71225.0000   112051  170.30%
      5     6    71225.0000   302    26350.0000    71225.0000   147954  170.30%
      6     7    71225.0000   255    26350.0000    71225.0000   145091  170.30%
      7     8    71225.0000   352    26350.0000    71225.0000   162028  170.30%
      8     9    71225.0000   380    26350.0000    71225.0000   188402  170.30%
      9     4    71225.0000   283    26350.0000    71225.0000   114707  170.30%
     11    10    71225.0000   379    26350.0000    71225.0000   221118  170.30%
Elapsed time = 859.19 sec. (335472.62 ticks, tree = 0.20 MB, solutions = 2)
     12     5    71225.0000   283    26350.0000    71225.0000   121705  170.30%
     13    11    71225.0000   433    26350.0000    71225.0000   232843  170.30%
     14    12    71225.0000   349    26350.0000    71225.0000   234777  170.30%
     15    11    71225.0000   351    26350.0000    71225.0000   235343  170.30%
     16    13    71225.0000   328    26350.0000    71225.0000   236478  170.30%
     17    14    71225.0000   321    26350.0000    71225.0000   237684  170.30%
     19    15    71225.0000   320    26350.0000    71225.0000   262181  170.30%
     21    15    71225.0000   330    26350.0000    71225.0000   262241  170.30%
     22    10    71225.0000   305    26350.0000    71225.0000   227305  170.30%
     23    10    71225.0000   295    26350.0000    71225.0000   210991  170.30%
Elapsed time = 948.47 sec. (361390.67 ticks, tree = 0.24 MB, solutions = 2)
     24    16    71225.0000   331    26350.0000    71225.0000   275055  170.30%
     26    18    71225.0000   327    26350.0000    71225.0000   318512  170.30%
     27    11    71225.0000   354    26350.0000    71225.0000   254718  170.30%
     28    22    71225.0000   351    26350.0000    71225.0000   421443  170.30%
     29    19    71225.0000   307    26350.0000    71225.0000   322346  170.30%
     30    20    71225.0000   279    26350.0000    71225.0000   322925  170.30%
     33    18    71225.0000   326    26350.0000    71225.0000   280451  170.30%
     35    26    71225.0000   292    26350.0000    71225.0000   432434  170.30%
     36    27    71225.0000   275    26350.0000    71225.0000   433913  170.30%
     37    28    71225.0000   242    26350.0000    71225.0000   435638  170.30%
Elapsed time = 1011.25 sec. (385729.84 ticks, tree = 3.71 MB, solutions = 2)
     38    29    71225.0000   258    26350.0000    71225.0000   436657  170.30%
     42    29    71225.0000   318    26350.0000    71225.0000   456564  170.30%
     44    31    71225.0000   295    26350.0000    71225.0000   441476  170.30%
     47    33    71225.0000   272    26350.0000    71225.0000   443755  170.30%
     49    29    71225.0000   301    26350.0000    71225.0000   470289  170.30%
     50    33    71225.0000   293    26350.0000    71225.0000   445276  170.30%
     53    38    71225.0000   275    26350.0000    71225.0000   488940  170.30%
     55    40    71225.0000   275    26350.0000    71225.0000   491294  170.30%
     58    41    71225.0000   289    26350.0000    71225.0000   492359  170.30%
     59    42    71225.0000   264    26350.0000    71225.0000   493885  170.30%
Elapsed time = 1054.72 sec. (402295.80 ticks, tree = 8.19 MB, solutions = 2)
     62    30    71225.0000   304    26350.0000    71225.0000   475438  170.30%
     65    44    71225.0000   267    26350.0000    71225.0000   496116  170.30%
     68    46    71225.0000   271    26350.0000    71225.0000   498211  170.30%
     70    43    71225.0000   300    26350.0000    71225.0000   499981  170.30%
     73    44    71225.0000   269    26350.0000    71225.0000   501934  170.30%
     78    45    71225.0000   289    26350.0000    71225.0000   503632  170.30%
     79    47    71225.0000   295    26350.0000    71225.0000   529647  170.30%
     84    47    71225.0000   251    26350.0000    71225.0000   506674  170.30%
     87    48    71225.0000   256    26350.0000    71225.0000   532776  170.30%
     88    49    71225.0000   251    26350.0000    71225.0000   533909  170.30%
Elapsed time = 1092.63 sec. (415968.76 ticks, tree = 11.01 MB, solutions = 2)
     92    49    71225.0000   282    26350.0000    71225.0000   535525  170.30%
     93    50    71225.0000   261    26350.0000    71225.0000   512131  170.30%
     95    51    71225.0000   237    26350.0000    71225.0000   538520  170.30%
     99    58    71225.0000   258    26350.0000    71225.0000   548546  170.30%
    102    58    71225.0000   281    26350.0000    71225.0000   550156  170.30%
    104    58    71225.0000   276    26350.0000    71225.0000   551755  170.30%
    106    53    71225.0000   243    26350.0000    71225.0000   542117  170.30%
    108    54    71225.0000   275    26350.0000    71225.0000   543093  170.30%
    110    43    71225.0000   349    26350.0000    71225.0000   524935  170.30%
    113    60    71225.0000   259    26350.0000    71225.0000   555689  170.30%
Elapsed time = 1134.17 sec. (431782.99 ticks, tree = 11.71 MB, solutions = 2)
    117    61    71225.0000   293    26350.0000    71225.0000   558500  170.30%
    118    55    71225.0000   256    26350.0000    71225.0000   544244  170.30%
    120    73    71225.0000   271    26350.0000    71225.0000   591614  170.30%
    122    74    71225.0000   267    26350.0000    71225.0000   592837  170.30%
    123    49    71225.0000   281    26350.0000    71225.0000   508524  170.30%
    126    65    infeasible          26350.0000    71225.0000   584041  170.30%
    127    59    71225.0000   335    26350.0000    71225.0000   574623  170.30%
    128    66    71225.0000   272    26350.0000    71225.0000   585662  170.30%
    130    66    71225.0000   302    26350.0000    71225.0000   587699  170.30%
    133    68    71225.0000   269    26350.0000    71225.0000   588847  170.30%
Elapsed time = 1200.09 sec. (452071.96 ticks, tree = 12.05 MB, solutions = 2)
    135    68    71225.0000   321    26350.0000    71225.0000   591114  170.30%

Implied bound cuts applied:  1406
Flow cuts applied:  49
Mixed integer rounding cuts applied:  868

Root node processing (before b&c):
  Real time             =  615.78 sec. (247149.98 ticks)
Parallel b&c, 4 threads:
  Real time             =  584.70 sec. (208086.23 ticks)
  Sync time (average)   =  126.18 sec.
  Wait time (average)   =    0.00 sec.
                          ------------
Total (root+branch&cut) = 1200.49 sec. (455236.21 ticks)

<<< solve


OBJECTIVE: 26350

<<< post process


<<< done

